\* Problem: Unknown *\

Maximize
 obj: + xp_0_0 + xp_0_1 + xp_0_2 + xp_0_3 + xp_0_4 + xp_0_5 + xp_1_0
 + xp_1_1 + xp_2_0 + xp_2_1 + xp_2_2 + xp_2_3 + xp_2_4 + xp_3_0 + xp_3_1
 + xp_4_0 + xp_4_1 + xp_5_0 + xp_5_1 + xp_5_2 + xp_6_0 + xp_6_1 + xp_6_2
 + xp_6_3 + xp_7_0 + xp_8_0 + xp_8_1 + xp_9_0 + xp_10_0 + xp_11_0
 + xp_11_1 + xp_11_2 + xp_11_3 + xp_12_0 + xp_13_0 + xp_13_1 + xp_14_0
 + xp_15_0 + xp_16_0 + xp_16_1 + xp_17_0 + xp_17_1 + xp_17_2 + xp_17_3
 + xp_17_4 + xp_17_5 + xp_18_0 + xp_18_1 + xp_18_2 + xp_18_3 + xp_19_0
 + xp_19_1 + xp_19_2 + xp_19_3 + xp_20_0 + xp_20_1 + xp_20_2 + xp_20_3
 + xp_21_0 + xp_21_1 + xp_21_2 + xp_21_3 + xp_21_4 + xp_22_0 + xp_22_1
 + xp_22_2 + xp_22_3 + xp_22_4 + xp_23_0 + xp_23_1

Subject To
 r_1: 0 xp_0_0 <= 26.1838588989845
 r_2: + xp_22_4 + xp_18_2 + xp_6_1 + xp_5_2 + xp_2_3 <= 26.0136785539814
 r_3: + xp_21_3 + xp_18_3 + xp_6_3 <= 26.7924528301887
 r_4: + xp_17_1 + xp_15_0 <= 27.6367006487488
 r_5: + xp_18_0 <= 25.6427184466019
 r_6: + xp_18_1 <= 26.9620253164557
 r_7: + xp_20_3 <= 26.1838588989845
 r_8: + xp_22_2 + xp_11_2 + xp_5_1 + xp_2_2 <= 26.0136785539814
 r_9: + xp_11_1 + xp_6_2 + xp_3_1 <= 26.7924528301887
 r_10: + xp_3_0 <= 27.6367006487488
 r_11: + xp_18_1 + xp_11_3 <= 25.6427184466019
 r_12: + xp_11_0 <= 26.9620253164557
 r_13: 0 xp_0_0 <= 28.3056478405316
 r_14: + xp_21_2 + xp_14_0 + xp_0_2 <= 26.0136785539814
 r_15: + xp_21_0 + xp_19_3 <= 26.7924528301887
 r_16: + xp_22_1 + xp_21_4 + xp_0_5 + xp_0_3 + xp_0_1
 <= 26.9620253164557
 r_17: + xp_0_0 <= 25.6427184466019
 r_18: + xp_21_3 + xp_4_0 <= 26.1838588989845
 r_19: + xp_19_0 <= 26.1838588989845
 r_20: + xp_21_1 + xp_19_2 + xp_19_1 + xp_4_1 + xp_0_4
 <= 28.3056478405316
 r_21: + xp_20_1 <= 26.0136785539814
 r_22: + xp_21_2 <= 26.7924528301887
 r_23: + xp_22_4 + xp_22_3 + xp_22_2 + xp_17_4 <= 26.9620253164557
 r_24: + xp_17_3 + xp_6_1 <= 26.7924528301887
 r_25: 0 xp_0_0 <= 28.3056478405316
 r_26: + xp_18_2 + xp_0_4 + xp_0_2 <= 25.6427184466019
 r_27: + xp_11_2 + xp_4_1 <= 26.0136785539814
 r_28: + xp_19_2 <= 26.0136785539814
 r_29: + xp_20_2 <= 26.7924528301887
 r_30: + xp_2_0 <= 26.7924528301887
 r_31: + xp_18_3 + xp_6_3 + xp_6_2 + xp_3_1 + xp_2_4 <= 26.7924528301887
 r_32: + xp_2_1 <= 28.3056478405316
 r_33: + xp_11_1 + xp_2_3 <= 26.7924528301887
 r_34: + xp_19_3 + xp_2_2 <= 26.7924528301887
 r_35: 0 xp_0_0 <= 26.9620253164557
 r_36: + xp_9_0 <= 26.9620253164557
 r_37: + xp_21_4 + xp_13_1 + xp_8_1 + xp_0_3 <= 26.7924528301887
 r_38: + xp_1_1 <= 26.9620253164557
 r_39: + xp_17_4 + xp_17_2 + xp_0_5 <= 27.6367006487488
 r_40: + xp_0_1 <= 25.6427184466019
 r_41: + xp_12_0 + xp_2_4 <= 26.7924528301887
 r_42: + xp_21_4 <= 26.7924528301887
 r_43: + xp_16_0 <= 26.7924528301887
 r_44: + xp_23_1 + xp_16_1 <= 26.7924528301887
 r_45: + xp_17_3 + xp_3_1 <= 27.6367006487488
 r_46: + xp_18_3 + xp_0_3 <= 25.6427184466019
 r_47: + xp_16_1 + xp_13_1 <= 26.9620253164557
 r_48: + xp_13_0 <= 26.7924528301887
 r_49: + xp_17_5 <= 27.6367006487488
 r_50: 0 xp_0_0 <= 25.6427184466019
 r_51: + xp_8_1 + xp_1_1 <= 27.6367006487488
 r_52: + xp_8_0 <= 27.6367006487488
 r_53: + xp_1_0 <= 27.6367006487488
 r_54: + xp_0_5 <= 25.6427184466019
 r_55: 0 xp_0_0 <= 27.6367006487488
 r_56: 0 xp_0_0 <= 27.6367006487488
 r_57: + xp_22_1 <= 25.6427184466019
 r_58: + xp_22_3 + xp_17_4 + xp_17_3 + xp_5_0 <= 25.6427184466019
 r_59: + xp_22_0 + xp_17_2 <= 25.6427184466019
 r_60: + xp_23_1 + xp_6_0 <= 25.6427184466019
 r_61: + xp_23_0 + xp_17_5 <= 25.6427184466019
 r_62: + xp_17_0 <= 25.6427184466019
 r_63: + xp_22_4 + xp_17_1 + xp_11_3 + xp_6_3 + xp_6_1 + xp_5_2
 <= 25.6427184466019
 r_64: + xp_22_2 + xp_6_2 + xp_5_1 <= 25.6427184466019
 r_65: + xp_20_1 + xp_19_2 + xp_4_1 + xp_2_1 + xp_0_4
 <= 28.3056478405316
 r_66: + xp_21_1 + xp_20_2 + xp_7_0 <= 28.3056478405316
 r_67: + xp_20_3 + xp_19_1 + xp_10_0 <= 28.3056478405316
 r_68: + xp_20_0 <= 28.3056478405316

Bounds
 0 <= xp_0_0 <= 26.25
 0 <= xp_0_1 <= 15
 0 <= xp_0_2 <= 7.5
 0 <= xp_0_3 <= 3.75
 0 <= xp_0_4 <= 3.75
 0 <= xp_0_5 <= 3.75
 0 <= xp_1_0 <= 20.7634875
 0 <= xp_1_1 <= 13.2634875
 0 <= xp_2_0 <= 22.9440225
 0 <= xp_2_1 <= 4.1940225
 0 <= xp_2_2 <= 1.3320675
 0 <= xp_2_3 <= 4.1940225
 0 <= xp_2_4 <= 0.888045
 0 <= xp_3_0 <= 26.25
 0 <= xp_3_1 <= 3.75
 0 <= xp_4_0 <= 18.9918
 0 <= xp_4_1 <= 6.3306
 0 <= xp_5_0 <= 12.6612
 0 <= xp_5_1 <= 9.4959
 0 <= xp_5_2 <= 3.1653
 0 <= xp_6_0 <= 14.24385
 0 <= xp_6_1 <= 2.84877
 0 <= xp_6_2 <= 2.84877
 0 <= xp_6_3 <= 2.84877
 0 <= xp_7_0 <= 21.84057
 0 <= xp_8_0 <= 17.1717525
 0 <= xp_8_1 <= 2.4531075
 0 <= xp_9_0 <= 18.200475
 0 <= xp_10_0 <= 18.200475
 0 <= xp_11_0 <= 25.3531725
 0 <= xp_11_1 <= 14.7010575
 0 <= xp_11_2 <= 6.902115
 0 <= xp_11_3 <= 10.652115
 0 <= xp_12_0 <= 17.09262
 0 <= xp_13_0 <= 12.46336875
 0 <= xp_13_1 <= 4.15445625
 0 <= xp_14_0 <= 15.8265
 0 <= xp_15_0 <= 15.668235
 0 <= xp_16_0 <= 13.155778125
 0 <= xp_16_1 <= 1.879396875
 0 <= xp_17_0 <= 25.9994175
 0 <= xp_17_1 <= 1.74970875
 0 <= xp_17_2 <= 3.4994175
 0 <= xp_17_3 <= 7.5
 0 <= xp_17_4 <= 1.74970875
 0 <= xp_17_5 <= 3.4994175
 0 <= xp_18_0 <= 21.049245
 0 <= xp_18_1 <= 10.5246225
 0 <= xp_18_2 <= 5.26231125
 0 <= xp_18_3 <= 5.26231125
 0 <= xp_19_0 <= 29.15592375
 0 <= xp_19_1 <= 2.90592375
 0 <= xp_19_2 <= 2.90592375
 0 <= xp_19_3 <= 6.65592375
 0 <= xp_20_0 <= 26.56213875
 0 <= xp_20_1 <= 7.81213875
 0 <= xp_20_2 <= 1.35404625
 0 <= xp_20_3 <= 5.10404625
 0 <= xp_21_0 <= 23.2957275
 0 <= xp_21_1 <= 2.27286375
 0 <= xp_21_2 <= 4.886431875
 0 <= xp_21_3 <= 7.5
 0 <= xp_21_4 <= 1.136431875
 0 <= xp_22_0 <= 22.5044025
 0 <= xp_22_1 <= 4.688600625
 0 <= xp_22_2 <= 4.688600625
 0 <= xp_22_3 <= 4.688600625
 0 <= xp_22_4 <= 0.938600624999999
 0 <= xp_23_0 <= 23.443003125
 0 <= xp_23_1 <= 14.065801875

End
